presolving:
(round 1, fast)       9473 del vars, 18945 del conss, 0 add conss, 18648 chg bounds, 0 chg sides, 9472 chg coeffs, 0 upgd conss, 0 impls, 9724 clqs
   (0.2s) running MILP presolver
   (0.2s) MILP presolver found nothing
(round 2, exhaustive) 9473 del vars, 18945 del conss, 0 add conss, 18648 chg bounds, 0 chg sides, 9472 chg coeffs, 9872 upgd conss, 0 impls, 9724 clqs
(round 3, fast)       9473 del vars, 18945 del conss, 0 add conss, 18648 chg bounds, 0 chg sides, 18944 chg coeffs, 9872 upgd conss, 0 impls, 9724 clqs
(round 4, medium)     9473 del vars, 28417 del conss, 9324 add conss, 18648 chg bounds, 0 chg sides, 18944 chg coeffs, 9872 upgd conss, 0 impls, 9724 clqs
   (2.6s) probing: 1000/9472 (10.6%) - 0 fixings, 0 aggregations, 364417 implications, 0 bound changes
   (2.6s) probing: 1001/9472 (10.6%) - 0 fixings, 0 aggregations, 364727 implications, 0 bound changes
   (2.6s) probing aborted: 1000/1000 successive useless probings
   (2.7s) symmetry computation started: requiring (bin +, int -, cont +), (fixed: bin -, int +, cont -)
   (2.7s) no symmetry present
presolving (5 rounds: 5 fast, 3 medium, 2 exhaustive):
 9473 deleted vars, 28417 deleted constraints, 9324 added constraints, 18648 tightened bounds, 0 added holes, 0 changed sides, 18944 changed coefficients
 0 implications, 61840 cliques
presolved problem has 9472 variables (9472 bin, 0 int, 0 impl, 0 cont) and 9724 constraints
   9724 constraints of type <setppc>
Presolving Time: 2.62

 time | node  | left  |LP iter|LP it/n|mem/heur|mdpt |vars |cons |rows |cuts |sepa|confs|strbr|  dualbound   | primalbound  |  gap   | compl. 
p 2.8s|     1 |     0 |     0 |     - |  clique|   0 |9472 |9724 |9724 |   0 |  0 |   0 |   0 | 0.000000e+00 | 5.855431e+04 |    Inf | unknown
p 3.1s|     1 |     0 |     0 |     - | vbounds|   0 |9472 |9725 |9724 |   0 |  0 |   1 |   0 | 0.000000e+00 | 5.561116e+04 |    Inf | unknown
  3.6s|     1 |     0 |  2219 |     - |   168M |   0 |9472 |9725 |9724 |   0 |  0 |   1 |   0 | 1.368226e+04 | 5.561116e+04 | 306.45%| unknown
r 3.7s|     1 |     0 |  2219 |     - |shifting|   0 |9472 |9725 |9724 |   0 |  0 |   1 |   0 | 1.368226e+04 | 2.942998e+04 | 115.10%| unknown
  4.2s|     1 |     0 |  2390 |     - |   170M |   0 |9472 |9725 |9726 |   2 |  1 |   1 |   0 | 1.370363e+04 | 2.942998e+04 | 114.76%| unknown
  4.5s|     1 |     0 |  2447 |     - |   171M |   0 |9472 |9725 |9727 |   3 |  2 |   1 |   0 | 1.370751e+04 | 2.942998e+04 | 114.70%| unknown
  4.8s|     1 |     0 |  2498 |     - |   172M |   0 |9472 |9725 |9728 |   4 |  3 |   1 |   0 | 1.371250e+04 | 2.942998e+04 | 114.62%| unknown
r 4.8s|     1 |     0 |  2498 |     - |shifting|   0 |9472 |9725 |9728 |   4 |  3 |   1 |   0 | 1.371250e+04 | 2.937970e+04 | 114.25%| unknown
  5.2s|     1 |     0 |  2692 |     - |   174M |   0 |9472 |9725 |9730 |   6 |  4 |   1 |   0 | 1.373027e+04 | 2.937970e+04 | 113.98%| unknown
  5.5s|     1 |     0 |  2767 |     - |   175M |   0 |9472 |9725 |9731 |   7 |  5 |   1 |   0 | 1.374632e+04 | 2.937970e+04 | 113.73%| unknown
  5.8s|     1 |     0 |  2870 |     - |   176M |   0 |9472 |9725 |9732 |   8 |  6 |   1 |   0 | 1.375369e+04 | 2.937970e+04 | 113.61%| unknown
  6.1s|     1 |     0 |  2962 |     - |   177M |   0 |9472 |9725 |9734 |  10 |  8 |   1 |   0 | 1.376156e+04 | 2.937970e+04 | 113.49%| unknown
  6.5s|     1 |     0 |  2989 |     - |   178M |   0 |9472 |9725 |9735 |  11 |  9 |   1 |   0 | 1.376436e+04 | 2.937970e+04 | 113.45%| unknown
  6.8s|     1 |     0 |  3031 |     - |   179M |   0 |9472 |9725 |9736 |  12 | 10 |   1 |   0 | 1.376947e+04 | 2.937970e+04 | 113.37%| unknown
  7.1s|     1 |     0 |  3184 |     - |   180M |   0 |9472 |9725 |9738 |  14 | 11 |   1 |   0 | 1.377733e+04 | 2.937970e+04 | 113.25%| unknown
 time | node  | left  |LP iter|LP it/n|mem/heur|mdpt |vars |cons |rows |cuts |sepa|confs|strbr|  dualbound   | primalbound  |  gap   | compl. 
d10.6s|     1 |     0 | 10391 |     - |farkasdi|   0 |9472 |9725 |9738 |   0 | 13 |   1 |   0 | 1.377733e+04 | 1.745586e+04 |  26.70%| unknown
L15.9s|     1 |     0 | 25762 |     - |    rens|   0 |9472 |9725 |9738 |  14 | 13 |  10 |   0 | 1.377733e+04 | 1.500144e+04 |   8.88%| unknown
L16.1s|     1 |     0 | 25762 |     - |    alns|   0 |9472 |9725 |9738 |  14 | 13 |  10 |   0 | 1.377733e+04 | 1.452755e+04 |   5.45%| unknown
 16.2s|     1 |     0 | 25762 |     - |   183M |   0 |9472 |9725 |9738 |  14 | 13 |  10 |   0 | 1.377733e+04 | 1.452755e+04 |   5.45%| unknown
 16.2s|     1 |     0 | 25762 |     - |   183M |   0 |9472 |9725 |3160 |  14 | 13 |  10 |   0 | 1.377733e+04 | 1.452755e+04 |   5.45%| unknown
 16.4s|     1 |     0 | 25825 |     - |   182M |   0 |9472 |3147 |3161 |  15 | 14 |  10 |   0 | 1.377954e+04 | 1.452755e+04 |   5.43%| unknown
 16.4s|     1 |     0 | 25825 |     - |   183M |   0 |9472 |3147 |3151 |  15 | 14 |  10 |   0 | 1.377954e+04 | 1.452755e+04 |   5.43%| unknown
(run 1, node 1) restarting after 6649 global fixings of integer variables

(restart) converted 15 cuts from the global cut pool into linear constraints

presolving:
(round 1, fast)       6649 del vars, 8 del conss, 0 add conss, 0 chg bounds, 0 chg sides, 101 chg coeffs, 0 upgd conss, 0 impls, 13204 clqs
   (16.5s) running MILP presolver
   (16.5s) MILP presolver found nothing
(round 2, exhaustive) 6649 del vars, 9 del conss, 0 add conss, 0 chg bounds, 0 chg sides, 101 chg coeffs, 15 upgd conss, 0 impls, 13204 clqs
presolving (3 rounds: 3 fast, 2 medium, 2 exhaustive):
 6649 deleted vars, 10 deleted constraints, 0 added constraints, 0 tightened bounds, 0 added holes, 0 changed sides, 101 changed coefficients
 0 implications, 13204 cliques
presolved problem has 2823 variables (2823 bin, 0 int, 0 impl, 0 cont) and 2999 constraints
     14 constraints of type <knapsack>
   2985 constraints of type <setppc>
Presolving Time: 2.69
transformed 4/8 original solutions to the transformed problem space

 time | node  | left  |LP iter|LP it/n|mem/heur|mdpt |vars |cons |rows |cuts |sepa|confs|strbr|  dualbound   | primalbound  |  gap   | compl. 
 16.9s|     1 |     0 | 28996 |     - |   186M |   0 |2823 |2999 |2999 |   0 |  0 |  10 |   0 | 1.377954e+04 | 1.452755e+04 |   5.43%| unknown
 16.9s|     1 |     0 | 28996 |     - |   186M |   0 |2823 |2999 |2997 |   0 |  0 |  10 |   0 | 1.377954e+04 | 1.452755e+04 |   5.43%| unknown
 17.0s|     1 |     0 | 29014 |     - |   187M |   0 |2823 |2997 |2998 |   1 |  1 |  10 |   0 | 1.378041e+04 | 1.452755e+04 |   5.42%| unknown
 17.0s|     1 |     0 | 29014 |     - |   187M |   0 |2823 |2997 |2995 |   1 |  1 |  10 |   0 | 1.378041e+04 | 1.452755e+04 |   5.42%| unknown
 17.1s|     1 |     0 | 29090 |     - |   187M |   0 |2823 |2994 |2996 |   2 |  2 |  10 |   0 | 1.378586e+04 | 1.452755e+04 |   5.38%| unknown
 17.1s|     1 |     0 | 29090 |     - |   187M |   0 |2823 |2994 |2976 |   2 |  2 |  10 |   0 | 1.378586e+04 | 1.452755e+04 |   5.38%| unknown
 17.2s|     1 |     0 | 29165 |     - |   188M |   0 |2823 |2974 |2978 |   4 |  3 |  10 |   0 | 1.379161e+04 | 1.452755e+04 |   5.34%| unknown
 17.2s|     1 |     0 | 29165 |     - |   188M |   0 |2823 |2974 |2970 |   4 |  3 |  10 |   0 | 1.379161e+04 | 1.452755e+04 |   5.34%| unknown
 17.3s|     1 |     0 | 29218 |     - |   188M |   0 |2823 |2966 |2971 |   5 |  4 |  10 |   0 | 1.379558e+04 | 1.452755e+04 |   5.31%| unknown
 17.3s|     1 |     0 | 29218 |     - |   188M |   0 |2823 |2966 |2966 |   5 |  4 |  10 |   0 | 1.379558e+04 | 1.452755e+04 |   5.31%| unknown
 17.4s|     1 |     0 | 29308 |     - |   188M |   0 |2823 |2961 |2967 |   6 |  5 |  10 |   0 | 1.380130e+04 | 1.452755e+04 |   5.26%| unknown
 17.4s|     1 |     0 | 29308 |     - |   188M |   0 |2823 |2961 |2961 |   6 |  5 |  10 |   0 | 1.380130e+04 | 1.452755e+04 |   5.26%| unknown
 17.5s|     1 |     0 | 29346 |     - |   188M |   0 |2823 |2955 |2962 |   7 |  6 |  10 |   0 | 1.380608e+04 | 1.452755e+04 |   5.23%| unknown
 17.6s|     1 |     0 | 29346 |     - |   188M |   0 |2823 |2955 |2947 |   7 |  6 |  10 |   0 | 1.380608e+04 | 1.452755e+04 |   5.23%| unknown
 17.6s|     1 |     0 | 29383 |     - |   189M |   0 |2823 |2940 |2948 |   8 |  7 |  10 |   0 | 1.381125e+04 | 1.452755e+04 |   5.19%| unknown
 time | node  | left  |LP iter|LP it/n|mem/heur|mdpt |vars |cons |rows |cuts |sepa|confs|strbr|  dualbound   | primalbound  |  gap   | compl. 
 17.7s|     1 |     0 | 29383 |     - |   189M |   0 |2823 |2940 |2947 |   8 |  7 |  10 |   0 | 1.381125e+04 | 1.452755e+04 |   5.19%| unknown
 17.7s|     1 |     0 | 29407 |     - |   189M |   0 |2823 |2939 |2948 |   9 |  8 |  10 |   0 | 1.381240e+04 | 1.452755e+04 |   5.18%| unknown
 17.8s|     1 |     0 | 29407 |     - |   189M |   0 |2823 |2939 |2945 |   9 |  8 |  10 |   0 | 1.381240e+04 | 1.452755e+04 |   5.18%| unknown
 17.8s|     1 |     0 | 29477 |     - |   189M |   0 |2823 |2936 |2946 |  10 |  9 |  10 |   0 | 1.381603e+04 | 1.452755e+04 |   5.15%| unknown
 17.9s|     1 |     0 | 29477 |     - |   189M |   0 |2823 |2936 |2935 |  10 |  9 |  10 |   0 | 1.381603e+04 | 1.452755e+04 |   5.15%| unknown
 18.0s|     1 |     0 | 29514 |     - |   189M |   0 |2823 |2925 |2936 |  11 | 10 |  10 |   0 | 1.381790e+04 | 1.452755e+04 |   5.14%| unknown
 18.0s|     1 |     0 | 29514 |     - |   189M |   0 |2823 |2925 |2931 |  11 | 10 |  10 |   0 | 1.381790e+04 | 1.452755e+04 |   5.14%| unknown
 18.0s|     1 |     0 | 29553 |     - |   190M |   0 |2823 |2920 |2932 |  12 | 11 |  10 |   0 | 1.382007e+04 | 1.452755e+04 |   5.12%| unknown
 18.0s|     1 |     0 | 29553 |     - |   190M |   0 |2823 |2920 |2927 |  12 | 11 |  10 |   0 | 1.382007e+04 | 1.452755e+04 |   5.12%| unknown
 18.1s|     1 |     0 | 29571 |     - |   190M |   0 |2823 |2915 |2928 |  13 | 12 |  10 |   0 | 1.382109e+04 | 1.452755e+04 |   5.11%| unknown
 18.1s|     1 |     0 | 29571 |     - |   190M |   0 |2823 |2915 |2926 |  13 | 12 |  10 |   0 | 1.382109e+04 | 1.452755e+04 |   5.11%| unknown
 18.2s|     1 |     0 | 29635 |     - |   190M |   0 |2823 |2913 |2927 |  14 | 13 |  10 |   0 | 1.382484e+04 | 1.452755e+04 |   5.08%| unknown
 18.2s|     1 |     0 | 29635 |     - |   190M |   0 |2823 |2913 |2919 |  14 | 13 |  10 |   0 | 1.382484e+04 | 1.452755e+04 |   5.08%| unknown
 18.2s|     1 |     0 | 29684 |     - |   191M |   0 |2823 |2905 |2920 |  15 | 15 |  10 |   0 | 1.382694e+04 | 1.452755e+04 |   5.07%| unknown
 18.3s|     1 |     0 | 29684 |     - |   191M |   0 |2823 |2905 |2908 |  15 | 15 |  10 |   0 | 1.382694e+04 | 1.452755e+04 |   5.07%| unknown
 time | node  | left  |LP iter|LP it/n|mem/heur|mdpt |vars |cons |rows |cuts |sepa|confs|strbr|  dualbound   | primalbound  |  gap   | compl. 
 18.3s|     1 |     0 | 29684 |     - |   191M |   0 |2823 |2893 |2908 |  15 | 16 |  10 |   0 | 1.382694e+04 | 1.452755e+04 |   5.07%| unknown
 18.4s|     1 |     0 | 29719 |     - |   191M |   0 |2823 |2893 |2907 |  17 | 17 |  10 |   0 | 1.382766e+04 | 1.452755e+04 |   5.06%| unknown
 18.4s|     1 |     0 | 29719 |     - |   191M |   0 |2823 |2893 |2906 |  17 | 17 |  10 |   0 | 1.382766e+04 | 1.452755e+04 |   5.06%| unknown
 18.4s|     1 |     0 | 29779 |     - |   191M |   0 |2823 |2892 |2908 |  19 | 18 |  10 |   0 | 1.382942e+04 | 1.452755e+04 |   5.05%| unknown
 18.5s|     1 |     0 | 29779 |     - |   191M |   0 |2823 |2892 |2906 |  19 | 18 |  10 |   0 | 1.382942e+04 | 1.452755e+04 |   5.05%| unknown
 18.5s|     1 |     0 | 29816 |     - |   191M |   0 |2823 |2890 |2907 |  20 | 19 |  10 |   0 | 1.383249e+04 | 1.452755e+04 |   5.02%| unknown
 18.5s|     1 |     0 | 29816 |     - |   191M |   0 |2823 |2890 |2901 |  20 | 19 |  10 |   0 | 1.383249e+04 | 1.452755e+04 |   5.02%| unknown
 18.6s|     1 |     0 | 29877 |     - |   192M |   0 |2823 |2884 |2902 |  21 | 20 |  10 |   0 | 1.383538e+04 | 1.452755e+04 |   5.00%| unknown
 18.6s|     1 |     0 | 29877 |     - |   192M |   0 |2823 |2884 |2895 |  21 | 20 |  10 |   0 | 1.383538e+04 | 1.452755e+04 |   5.00%| unknown
 25.0s|     1 |     2 | 30679 |     - |   192M |   0 |2823 |2854 |2895 |  21 | 22 |  10 |  51 | 1.392843e+04 | 1.452755e+04 |   4.30%| unknown
(run 2, node 1) restarting after 135 global fixings of integer variables

(restart) converted 21 cuts from the global cut pool into linear constraints

presolving:
(round 1, fast)       135 del vars, 2 del conss, 0 add conss, 0 chg bounds, 0 chg sides, 0 chg coeffs, 0 upgd conss, 0 impls, 12053 clqs
(round 2, exhaustive) 135 del vars, 2 del conss, 0 add conss, 0 chg bounds, 0 chg sides, 0 chg coeffs, 21 upgd conss, 0 impls, 12053 clqs
presolving (3 rounds: 3 fast, 2 medium, 2 exhaustive):
 135 deleted vars, 3 deleted constraints, 0 added constraints, 0 tightened bounds, 0 added holes, 0 changed sides, 0 changed coefficients
 0 implications, 12053 cliques
presolved problem has 2688 variables (2688 bin, 0 int, 0 impl, 0 cont) and 2872 constraints
     35 constraints of type <knapsack>
   2837 constraints of type <setppc>
Presolving Time: 2.74
transformed 6/10 original solutions to the transformed problem space

 time | node  | left  |LP iter|LP it/n|mem/heur|mdpt |vars |cons |rows |cuts |sepa|confs|strbr|  dualbound   | primalbound  |  gap   | compl. 
 25.6s|     1 |     0 | 35304 |     - |   192M |   0 |2688 |2872 |2872 |   0 |  0 |  10 |  51 | 1.392843e+04 | 1.452755e+04 |   4.30%| unknown
 25.6s|     1 |     0 | 35304 |     - |   192M |   0 |2688 |2872 |2871 |   0 |  0 |  10 |  51 | 1.392843e+04 | 1.452755e+04 |   4.30%| unknown
 30.6s|     1 |     2 | 39374 |     - |   193M |   0 |2688 |2876 |2871 |   0 |  2 |  15 |  84 | 1.392847e+04 | 1.452755e+04 |   4.30%| unknown

SCIP Status        : problem is solved [optimal solution found]
Solving Time (sec) : 50.76
Solving Nodes      : 33 (total of 35 nodes in 3 runs)
Primal Bound       : +1.45275517179522e+04 (11 solutions)
Dual Bound         : +1.45275517179522e+04
Gap                : 0.00 %
Solve Status: optimal
Solve Time: 50.77 seconds
